=====UNKNOWN=====
% time elapsed: 1800.04 s
%%%mzn-stat: initTime=0.04113616
%%%mzn-stat: nodes=5374353
%%%mzn-stat: restarts=6504
%%%mzn-stat: peakDepth=837
%%%mzn-stat: solveTime=1799.679890777
%%%mzn-stat: variables=2442
%%%mzn-stat: propagators=13215
%%%mzn-stat: failures=2985855
%%%mzn-stat: propagations=2122330637
%%%mzn-stat: nogoods=2985855
%%%mzn-stat: AverageConflictSize=13.293143504959216
%%%mzn-stat: NumUnitNogoodsLearned=145
%%%mzn-stat: AverageLearnedNogoodLength=31.62101508613111
%%%mzn-stat: AverageBacktrackAmount=0
%%%mzn-stat: AverageLbd=12.279518261938373
%%%mzn-stat-end
